6,5	0,0	16,4	6,6	0,0	0,0	0,0	0,0	0,0	7,7
8,0	11,0	0,0	16,4	19,3	0,0	0,0	18,9	0,0	0,0
0,0	0,0	19,9	0,0	19,9	9,8	0,0	0,0	10,4	0,0
9,3	0,0	15,8	0,0	0,0	0,0	11,7	0,0	0,0	0,0
0,0	8,6	0,0	18,7	12,3	0,0	0,0	13,5	0,0	0,0
0,0	19,4	7,9	0,0	8,0	11,9	0,0	0,0	17,1	0,0
0,0	11,5	0,0	7,9	0,0	0,0	17,8	0,0	0,0	5,7
11,6	0,0	5,3	0,0	0,0	0,0	0,0	0,0	0,0	14,4
0,0	5,1	0,0	17,6	16,4	0,0	0,0	19,3	0,0	0,0
0,0	0,0	6,8	0,0	0,0	6,4	18,4	0,0	0,0	10,4
									
3,5	2,6	3,1	3,8	4,6	4,0	2,7	4,2	4,7	2,7
